; solver scope 0
(declare-const tmp (_ BitVec 32))
(assert (let ((tmp_0 ((_ extract 8 8) tmp)))
        (let ((tmp_1 ((_ extract 0 0) tmp)))
        (let ((tmp_2 ((_ extract 16 16) tmp)))
        (let ((tmp_3 ((_ extract 24 24) tmp)))
        (let ((tmp_4 (bvand tmp_3 tmp_2)))
        (let ((tmp_5 (bvxor tmp_4 #b1)))
        (let ((tmp_6 (bvxor tmp_2 #b1)))
        (let ((tmp_7 (bvxor tmp_3 #b1)))
        (let ((tmp_8 (bvand tmp_7 tmp_6)))
        (let ((tmp_9 (bvxor tmp_8 #b1)))
        (let ((tmp_10 (bvand tmp_9 tmp_5)))
        (let ((tmp_11 (bvand tmp_10 tmp_1)))
        (let ((tmp_12 (bvxor tmp_11 #b1)))
        (let ((tmp_13 (bvxor tmp_1 #b1)))
        (let ((tmp_14 (bvxor tmp_10 #b1)))
        (let ((tmp_15 (bvand tmp_14 tmp_13)))
        (let ((tmp_16 (bvxor tmp_15 #b1)))
        (let ((tmp_17 (bvand tmp_16 tmp_12)))
        (let ((tmp_18 (bvand tmp_17 tmp_0)))
        (let ((tmp_19 (bvxor tmp_18 #b1)))
        (let ((tmp_20 (bvxor tmp_0 #b1)))
        (let ((tmp_21 (bvxor tmp_17 #b1)))
        (let ((tmp_22 (bvand tmp_21 tmp_20)))
        (let ((tmp_23 (bvxor tmp_22 #b1)))
        (let ((tmp_24 (bvand tmp_23 tmp_19)))
        (let ((tmp_25 ((_ extract 9 9) tmp)))
        (let ((tmp_26 ((_ extract 1 1) tmp)))
        (let ((tmp_27 ((_ extract 17 17) tmp)))
        (let ((tmp_28 ((_ extract 25 25) tmp)))
        (let ((tmp_29 (bvand tmp_28 tmp_27)))
        (let ((tmp_30 (bvxor tmp_29 #b1)))
        (let ((tmp_31 (bvxor tmp_27 #b1)))
        (let ((tmp_32 (bvxor tmp_28 #b1)))
        (let ((tmp_33 (bvand tmp_32 tmp_31)))
        (let ((tmp_34 (bvxor tmp_33 #b1)))
        (let ((tmp_35 (bvand tmp_34 tmp_30)))
        (let ((tmp_36 (bvand tmp_35 tmp_26)))
        (let ((tmp_37 (bvxor tmp_36 #b1)))
        (let ((tmp_38 (bvxor tmp_26 #b1)))
        (let ((tmp_39 (bvxor tmp_35 #b1)))
        (let ((tmp_40 (bvand tmp_39 tmp_38)))
        (let ((tmp_41 (bvxor tmp_40 #b1)))
        (let ((tmp_42 (bvand tmp_41 tmp_37)))
        (let ((tmp_43 (bvand tmp_42 tmp_25)))
        (let ((tmp_44 (bvxor tmp_43 #b1)))
        (let ((tmp_45 (bvxor tmp_25 #b1)))
        (let ((tmp_46 (bvxor tmp_42 #b1)))
        (let ((tmp_47 (bvand tmp_46 tmp_45)))
        (let ((tmp_48 (bvxor tmp_47 #b1)))
        (let ((tmp_49 (bvand tmp_48 tmp_44)))
        (let ((tmp_50 (bvand tmp_5 tmp_12)))
        (let ((tmp_51 (bvxor tmp_50 #b1)))
        (let ((tmp_52 (bvand tmp_51 tmp_49)))
        (let ((tmp_53 (bvxor tmp_52 #b1)))
        (let ((tmp_54 (bvxor tmp_49 #b1)))
        (let ((tmp_55 (bvand tmp_50 tmp_54)))
        (let ((tmp_56 (bvxor tmp_55 #b1)))
        (let ((tmp_57 (bvand tmp_56 tmp_53)))
        (let ((tmp_58 (bvxor tmp_57 #b1)))
        (let ((tmp_59 (bvand tmp_58 tmp_19)))
        (let ((tmp_60 (bvxor tmp_59 #b1)))
        (let ((tmp_61 (bvand tmp_57 tmp_18)))
        (let ((tmp_62 (bvxor tmp_61 #b1)))
        (let ((tmp_63 (bvand tmp_62 tmp_60)))
        (let ((tmp_64 ((_ extract 10 10) tmp)))
        (let ((tmp_65 ((_ extract 2 2) tmp)))
        (let ((tmp_66 ((_ extract 18 18) tmp)))
        (let ((tmp_67 ((_ extract 26 26) tmp)))
        (let ((tmp_68 (bvand tmp_67 tmp_66)))
        (let ((tmp_69 (bvxor tmp_68 #b1)))
        (let ((tmp_70 (bvxor tmp_66 #b1)))
        (let ((tmp_71 (bvxor tmp_67 #b1)))
        (let ((tmp_72 (bvand tmp_71 tmp_70)))
        (let ((tmp_73 (bvxor tmp_72 #b1)))
        (let ((tmp_74 (bvand tmp_73 tmp_69)))
        (let ((tmp_75 (bvand tmp_74 tmp_65)))
        (let ((tmp_76 (bvxor tmp_75 #b1)))
        (let ((tmp_77 (bvxor tmp_65 #b1)))
        (let ((tmp_78 (bvxor tmp_74 #b1)))
        (let ((tmp_79 (bvand tmp_78 tmp_77)))
        (let ((tmp_80 (bvxor tmp_79 #b1)))
        (let ((tmp_81 (bvand tmp_80 tmp_76)))
        (let ((tmp_82 (bvand tmp_81 tmp_64)))
        (let ((tmp_83 (bvxor tmp_82 #b1)))
        (let ((tmp_84 (bvxor tmp_64 #b1)))
        (let ((tmp_85 (bvxor tmp_81 #b1)))
        (let ((tmp_86 (bvand tmp_85 tmp_84)))
        (let ((tmp_87 (bvxor tmp_86 #b1)))
        (let ((tmp_88 (bvand tmp_87 tmp_83)))
        (let ((tmp_89 (bvand tmp_30 tmp_37)))
        (let ((tmp_90 (bvxor tmp_89 #b1)))
        (let ((tmp_91 (bvand tmp_90 tmp_88)))
        (let ((tmp_92 (bvxor tmp_91 #b1)))
        (let ((tmp_93 (bvxor tmp_88 #b1)))
        (let ((tmp_94 (bvand tmp_89 tmp_93)))
        (let ((tmp_95 (bvxor tmp_94 #b1)))
        (let ((tmp_96 (bvand tmp_95 tmp_92)))
        (let ((tmp_97 (bvand tmp_44 tmp_53)))
        (let ((tmp_98 (bvxor tmp_97 #b1)))
        (let ((tmp_99 (bvand tmp_98 tmp_96)))
        (let ((tmp_100 (bvxor tmp_99 #b1)))
        (let ((tmp_101 (bvxor tmp_96 #b1)))
        (let ((tmp_102 (bvand tmp_97 tmp_101)))
        (let ((tmp_103 (bvxor tmp_102 #b1)))
        (let ((tmp_104 (bvand tmp_103 tmp_100)))
        (let ((tmp_105 (bvxor tmp_104 #b1)))
        (let ((tmp_106 (bvand tmp_105 tmp_62)))
        (let ((tmp_107 (bvxor tmp_106 #b1)))
        (let ((tmp_108 (bvand tmp_104 tmp_61)))
        (let ((tmp_109 (bvxor tmp_108 #b1)))
        (let ((tmp_110 (bvand tmp_109 tmp_107)))
        (let ((tmp_111 (bvand tmp_100 tmp_109)))
        (let ((tmp_112 (bvxor tmp_111 #b1)))
        (let ((tmp_113 ((_ extract 11 11) tmp)))
        (let ((tmp_114 ((_ extract 3 3) tmp)))
        (let ((tmp_115 ((_ extract 19 19) tmp)))
        (let ((tmp_116 ((_ extract 27 27) tmp)))
        (let ((tmp_117 (bvand tmp_116 tmp_115)))
        (let ((tmp_118 (bvxor tmp_117 #b1)))
        (let ((tmp_119 (bvxor tmp_115 #b1)))
        (let ((tmp_120 (bvxor tmp_116 #b1)))
        (let ((tmp_121 (bvand tmp_120 tmp_119)))
        (let ((tmp_122 (bvxor tmp_121 #b1)))
        (let ((tmp_123 (bvand tmp_122 tmp_118)))
        (let ((tmp_124 (bvand tmp_123 tmp_114)))
        (let ((tmp_125 (bvxor tmp_124 #b1)))
        (let ((tmp_126 (bvxor tmp_114 #b1)))
        (let ((tmp_127 (bvxor tmp_123 #b1)))
        (let ((tmp_128 (bvand tmp_127 tmp_126)))
        (let ((tmp_129 (bvxor tmp_128 #b1)))
        (let ((tmp_130 (bvand tmp_129 tmp_125)))
        (let ((tmp_131 (bvand tmp_130 tmp_113)))
        (let ((tmp_132 (bvxor tmp_131 #b1)))
        (let ((tmp_133 (bvxor tmp_113 #b1)))
        (let ((tmp_134 (bvxor tmp_130 #b1)))
        (let ((tmp_135 (bvand tmp_134 tmp_133)))
        (let ((tmp_136 (bvxor tmp_135 #b1)))
        (let ((tmp_137 (bvand tmp_136 tmp_132)))
        (let ((tmp_138 (bvand tmp_69 tmp_76)))
        (let ((tmp_139 (bvxor tmp_138 #b1)))
        (let ((tmp_140 (bvand tmp_139 tmp_137)))
        (let ((tmp_141 (bvxor tmp_140 #b1)))
        (let ((tmp_142 (bvxor tmp_137 #b1)))
        (let ((tmp_143 (bvand tmp_138 tmp_142)))
        (let ((tmp_144 (bvxor tmp_143 #b1)))
        (let ((tmp_145 (bvand tmp_144 tmp_141)))
        (let ((tmp_146 (bvand tmp_83 tmp_92)))
        (let ((tmp_147 (bvxor tmp_146 #b1)))
        (let ((tmp_148 (bvand tmp_147 tmp_145)))
        (let ((tmp_149 (bvxor tmp_148 #b1)))
        (let ((tmp_150 (bvxor tmp_145 #b1)))
        (let ((tmp_151 (bvand tmp_146 tmp_150)))
        (let ((tmp_152 (bvxor tmp_151 #b1)))
        (let ((tmp_153 (bvand tmp_152 tmp_149)))
        (let ((tmp_154 (bvand tmp_153 tmp_112)))
        (let ((tmp_155 (bvxor tmp_154 #b1)))
        (let ((tmp_156 (bvxor tmp_153 #b1)))
        (let ((tmp_157 (bvand tmp_156 tmp_111)))
        (let ((tmp_158 (bvxor tmp_157 #b1)))
        (let ((tmp_159 (bvand tmp_158 tmp_155)))
        (let ((tmp_160 (bvand tmp_99 tmp_153)))
        (let ((tmp_161 (bvxor tmp_160 #b1)))
        (let ((tmp_162 (bvand tmp_149 tmp_161)))
        (let ((tmp_163 (bvand tmp_153 tmp_108)))
        (let ((tmp_164 (bvxor tmp_163 #b1)))
        (let ((tmp_165 (bvand tmp_164 tmp_162)))
        (let ((tmp_166 ((_ extract 12 12) tmp)))
        (let ((tmp_167 ((_ extract 4 4) tmp)))
        (let ((tmp_168 ((_ extract 20 20) tmp)))
        (let ((tmp_169 ((_ extract 28 28) tmp)))
        (let ((tmp_170 (bvand tmp_169 tmp_168)))
        (let ((tmp_171 (bvxor tmp_170 #b1)))
        (let ((tmp_172 (bvxor tmp_168 #b1)))
        (let ((tmp_173 (bvxor tmp_169 #b1)))
        (let ((tmp_174 (bvand tmp_173 tmp_172)))
        (let ((tmp_175 (bvxor tmp_174 #b1)))
        (let ((tmp_176 (bvand tmp_175 tmp_171)))
        (let ((tmp_177 (bvand tmp_176 tmp_167)))
        (let ((tmp_178 (bvxor tmp_177 #b1)))
        (let ((tmp_179 (bvxor tmp_167 #b1)))
        (let ((tmp_180 (bvxor tmp_176 #b1)))
        (let ((tmp_181 (bvand tmp_180 tmp_179)))
        (let ((tmp_182 (bvxor tmp_181 #b1)))
        (let ((tmp_183 (bvand tmp_182 tmp_178)))
        (let ((tmp_184 (bvand tmp_183 tmp_166)))
        (let ((tmp_185 (bvxor tmp_184 #b1)))
        (let ((tmp_186 (bvxor tmp_166 #b1)))
        (let ((tmp_187 (bvxor tmp_183 #b1)))
        (let ((tmp_188 (bvand tmp_187 tmp_186)))
        (let ((tmp_189 (bvxor tmp_188 #b1)))
        (let ((tmp_190 (bvand tmp_189 tmp_185)))
        (let ((tmp_191 (bvand tmp_118 tmp_125)))
        (let ((tmp_192 (bvxor tmp_191 #b1)))
        (let ((tmp_193 (bvand tmp_192 tmp_190)))
        (let ((tmp_194 (bvxor tmp_193 #b1)))
        (let ((tmp_195 (bvxor tmp_190 #b1)))
        (let ((tmp_196 (bvand tmp_191 tmp_195)))
        (let ((tmp_197 (bvxor tmp_196 #b1)))
        (let ((tmp_198 (bvand tmp_197 tmp_194)))
        (let ((tmp_199 (bvand tmp_132 tmp_141)))
        (let ((tmp_200 (bvxor tmp_199 #b1)))
        (let ((tmp_201 (bvand tmp_200 tmp_198)))
        (let ((tmp_202 (bvxor tmp_201 #b1)))
        (let ((tmp_203 (bvxor tmp_198 #b1)))
        (let ((tmp_204 (bvand tmp_199 tmp_203)))
        (let ((tmp_205 (bvxor tmp_204 #b1)))
        (let ((tmp_206 (bvand tmp_205 tmp_202)))
        (let ((tmp_207 (bvxor tmp_206 #b1)))
        (let ((tmp_208 (bvand tmp_207 tmp_165)))
        (let ((tmp_209 (bvxor tmp_208 #b1)))
        (let ((tmp_210 (bvxor tmp_165 #b1)))
        (let ((tmp_211 (bvand tmp_206 tmp_210)))
        (let ((tmp_212 (bvxor tmp_211 #b1)))
        (let ((tmp_213 (bvand tmp_212 tmp_209)))
        (let ((tmp_214 (bvand tmp_202 tmp_212)))
        (let ((tmp_215 (bvxor tmp_214 #b1)))
        (let ((tmp_216 ((_ extract 13 13) tmp)))
        (let ((tmp_217 ((_ extract 5 5) tmp)))
        (let ((tmp_218 ((_ extract 21 21) tmp)))
        (let ((tmp_219 ((_ extract 29 29) tmp)))
        (let ((tmp_220 (bvand tmp_219 tmp_218)))
        (let ((tmp_221 (bvxor tmp_220 #b1)))
        (let ((tmp_222 (bvxor tmp_218 #b1)))
        (let ((tmp_223 (bvxor tmp_219 #b1)))
        (let ((tmp_224 (bvand tmp_223 tmp_222)))
        (let ((tmp_225 (bvxor tmp_224 #b1)))
        (let ((tmp_226 (bvand tmp_225 tmp_221)))
        (let ((tmp_227 (bvand tmp_226 tmp_217)))
        (let ((tmp_228 (bvxor tmp_227 #b1)))
        (let ((tmp_229 (bvxor tmp_217 #b1)))
        (let ((tmp_230 (bvxor tmp_226 #b1)))
        (let ((tmp_231 (bvand tmp_230 tmp_229)))
        (let ((tmp_232 (bvxor tmp_231 #b1)))
        (let ((tmp_233 (bvand tmp_232 tmp_228)))
        (let ((tmp_234 (bvand tmp_233 tmp_216)))
        (let ((tmp_235 (bvxor tmp_234 #b1)))
        (let ((tmp_236 (bvxor tmp_216 #b1)))
        (let ((tmp_237 (bvxor tmp_233 #b1)))
        (let ((tmp_238 (bvand tmp_237 tmp_236)))
        (let ((tmp_239 (bvxor tmp_238 #b1)))
        (let ((tmp_240 (bvand tmp_239 tmp_235)))
        (let ((tmp_241 (bvand tmp_171 tmp_178)))
        (let ((tmp_242 (bvxor tmp_241 #b1)))
        (let ((tmp_243 (bvand tmp_242 tmp_240)))
        (let ((tmp_244 (bvxor tmp_243 #b1)))
        (let ((tmp_245 (bvxor tmp_240 #b1)))
        (let ((tmp_246 (bvand tmp_241 tmp_245)))
        (let ((tmp_247 (bvxor tmp_246 #b1)))
        (let ((tmp_248 (bvand tmp_247 tmp_244)))
        (let ((tmp_249 (bvand tmp_185 tmp_194)))
        (let ((tmp_250 (bvxor tmp_249 #b1)))
        (let ((tmp_251 (bvand tmp_250 tmp_248)))
        (let ((tmp_252 (bvxor tmp_251 #b1)))
        (let ((tmp_253 (bvxor tmp_248 #b1)))
        (let ((tmp_254 (bvand tmp_249 tmp_253)))
        (let ((tmp_255 (bvxor tmp_254 #b1)))
        (let ((tmp_256 (bvand tmp_255 tmp_252)))
        (let ((tmp_257 (bvand tmp_256 tmp_215)))
        (let ((tmp_258 (bvxor tmp_257 #b1)))
        (let ((tmp_259 (bvxor tmp_256 #b1)))
        (let ((tmp_260 (bvand tmp_259 tmp_214)))
        (let ((tmp_261 (bvxor tmp_260 #b1)))
        (let ((tmp_262 (bvand tmp_261 tmp_258)))
        (let ((tmp_263 (bvand tmp_206 tmp_256)))
        (let ((tmp_264 (bvand tmp_263 tmp_210)))
        (let ((tmp_265 (bvxor tmp_264 #b1)))
        (let ((tmp_266 (bvand tmp_201 tmp_256)))
        (let ((tmp_267 (bvxor tmp_266 #b1)))
        (let ((tmp_268 (bvand tmp_252 tmp_267)))
        (let ((tmp_269 (bvand tmp_268 tmp_265)))
        (let ((tmp_270 (bvxor tmp_269 #b1)))
        (let ((tmp_271 ((_ extract 14 14) tmp)))
        (let ((tmp_272 ((_ extract 6 6) tmp)))
        (let ((tmp_273 ((_ extract 22 22) tmp)))
        (let ((tmp_274 ((_ extract 30 30) tmp)))
        (let ((tmp_275 (bvand tmp_274 tmp_273)))
        (let ((tmp_276 (bvxor tmp_275 #b1)))
        (let ((tmp_277 (bvxor tmp_273 #b1)))
        (let ((tmp_278 (bvxor tmp_274 #b1)))
        (let ((tmp_279 (bvand tmp_278 tmp_277)))
        (let ((tmp_280 (bvxor tmp_279 #b1)))
        (let ((tmp_281 (bvand tmp_280 tmp_276)))
        (let ((tmp_282 (bvand tmp_281 tmp_272)))
        (let ((tmp_283 (bvxor tmp_282 #b1)))
        (let ((tmp_284 (bvxor tmp_272 #b1)))
        (let ((tmp_285 (bvxor tmp_281 #b1)))
        (let ((tmp_286 (bvand tmp_285 tmp_284)))
        (let ((tmp_287 (bvxor tmp_286 #b1)))
        (let ((tmp_288 (bvand tmp_287 tmp_283)))
        (let ((tmp_289 (bvand tmp_288 tmp_271)))
        (let ((tmp_290 (bvxor tmp_289 #b1)))
        (let ((tmp_291 (bvxor tmp_271 #b1)))
        (let ((tmp_292 (bvxor tmp_288 #b1)))
        (let ((tmp_293 (bvand tmp_292 tmp_291)))
        (let ((tmp_294 (bvxor tmp_293 #b1)))
        (let ((tmp_295 (bvand tmp_294 tmp_290)))
        (let ((tmp_296 (bvand tmp_221 tmp_228)))
        (let ((tmp_297 (bvxor tmp_296 #b1)))
        (let ((tmp_298 (bvand tmp_297 tmp_295)))
        (let ((tmp_299 (bvxor tmp_298 #b1)))
        (let ((tmp_300 (bvxor tmp_295 #b1)))
        (let ((tmp_301 (bvand tmp_296 tmp_300)))
        (let ((tmp_302 (bvxor tmp_301 #b1)))
        (let ((tmp_303 (bvand tmp_302 tmp_299)))
        (let ((tmp_304 (bvand tmp_235 tmp_244)))
        (let ((tmp_305 (bvxor tmp_304 #b1)))
        (let ((tmp_306 (bvand tmp_305 tmp_303)))
        (let ((tmp_307 (bvxor tmp_306 #b1)))
        (let ((tmp_308 (bvxor tmp_303 #b1)))
        (let ((tmp_309 (bvand tmp_304 tmp_308)))
        (let ((tmp_310 (bvxor tmp_309 #b1)))
        (let ((tmp_311 (bvand tmp_310 tmp_307)))
        (let ((tmp_312 (bvand tmp_311 tmp_270)))
        (let ((tmp_313 (bvxor tmp_312 #b1)))
        (let ((tmp_314 (bvxor tmp_311 #b1)))
        (let ((tmp_315 (bvand tmp_314 tmp_269)))
        (let ((tmp_316 (bvxor tmp_315 #b1)))
        (let ((tmp_317 (bvand tmp_316 tmp_313)))
        (let ((tmp_318 ((_ extract 7 7) tmp)))
        (let ((tmp_319 ((_ extract 23 23) tmp)))
        (let ((tmp_320 (bvand tmp_319 tmp_318)))
        (let ((tmp_321 (bvxor tmp_320 #b1)))
        (let ((tmp_322 (bvxor tmp_318 #b1)))
        (let ((tmp_323 (bvxor tmp_319 #b1)))
        (let ((tmp_324 (bvand tmp_323 tmp_322)))
        (let ((tmp_325 (bvxor tmp_324 #b1)))
        (let ((tmp_326 (bvand tmp_325 tmp_321)))
        (let ((tmp_327 ((_ extract 31 31) tmp)))
        (let ((tmp_328 ((_ extract 15 15) tmp)))
        (let ((tmp_329 (bvand tmp_328 tmp_327)))
        (let ((tmp_330 (bvxor tmp_329 #b1)))
        (let ((tmp_331 (bvxor tmp_327 #b1)))
        (let ((tmp_332 (bvxor tmp_328 #b1)))
        (let ((tmp_333 (bvand tmp_332 tmp_331)))
        (let ((tmp_334 (bvxor tmp_333 #b1)))
        (let ((tmp_335 (bvand tmp_334 tmp_330)))
        (let ((tmp_336 (bvand tmp_335 tmp_326)))
        (let ((tmp_337 (bvxor tmp_336 #b1)))
        (let ((tmp_338 (bvxor tmp_326 #b1)))
        (let ((tmp_339 (bvxor tmp_335 #b1)))
        (let ((tmp_340 (bvand tmp_339 tmp_338)))
        (let ((tmp_341 (bvxor tmp_340 #b1)))
        (let ((tmp_342 (bvand tmp_341 tmp_337)))
        (let ((tmp_343 (bvand tmp_276 tmp_283)))
        (let ((tmp_344 (bvxor tmp_343 #b1)))
        (let ((tmp_345 (bvand tmp_344 tmp_342)))
        (let ((tmp_346 (bvxor tmp_345 #b1)))
        (let ((tmp_347 (bvxor tmp_342 #b1)))
        (let ((tmp_348 (bvand tmp_343 tmp_347)))
        (let ((tmp_349 (bvxor tmp_348 #b1)))
        (let ((tmp_350 (bvand tmp_349 tmp_346)))
        (let ((tmp_351 (bvand tmp_290 tmp_299)))
        (let ((tmp_352 (bvxor tmp_351 #b1)))
        (let ((tmp_353 (bvand tmp_352 tmp_350)))
        (let ((tmp_354 (bvxor tmp_353 #b1)))
        (let ((tmp_355 (bvxor tmp_350 #b1)))
        (let ((tmp_356 (bvand tmp_351 tmp_355)))
        (let ((tmp_357 (bvxor tmp_356 #b1)))
        (let ((tmp_358 (bvand tmp_357 tmp_354)))
        (let ((tmp_359 (bvxor tmp_268 #b1)))
        (let ((tmp_360 (bvand tmp_311 tmp_359)))
        (let ((tmp_361 (bvxor tmp_360 #b1)))
        (let ((tmp_362 (bvand tmp_307 tmp_361)))
        (let ((tmp_363 (bvand tmp_311 tmp_263)))
        (let ((tmp_364 (bvand tmp_210 tmp_363)))
        (let ((tmp_365 (bvxor tmp_364 #b1)))
        (let ((tmp_366 (bvand tmp_365 tmp_362)))
        (let ((tmp_367 (bvxor tmp_366 #b1)))
        (let ((tmp_368 (bvand tmp_367 tmp_358)))
        (let ((tmp_369 (bvxor tmp_368 #b1)))
        (let ((tmp_370 (bvxor tmp_358 #b1)))
        (let ((tmp_371 (bvand tmp_366 tmp_370)))
        (let ((tmp_372 (bvxor tmp_371 #b1)))
        (let ((tmp_373 (bvand tmp_372 tmp_369)))
        (let ((tmp_374 (concat tmp_373 tmp_317)))
        (let ((tmp_375 (concat tmp_374 tmp_262)))
        (let ((tmp_376 (concat tmp_375 tmp_213)))
        (let ((tmp_377 (concat tmp_376 tmp_159)))
        (let ((tmp_378 (concat tmp_377 tmp_110)))
        (let ((tmp_379 (concat tmp_378 tmp_63)))
        (let ((tmp_380 (concat tmp_379 tmp_24)))
        (let ((tmp_381 ((_ extract 31 24) tmp)))
        (let ((tmp_382 ((_ extract 23 16) tmp)))
        (let ((tmp_383 ((_ extract 15 8) tmp)))
        (let ((tmp_384 ((_ extract 7 0) tmp)))
        (let ((tmp_385 (bvadd tmp_384 tmp_383)))
        (let ((tmp_386 (bvadd tmp_385 tmp_382)))
        (let ((tmp_387 (bvadd tmp_386 tmp_381)))
        (let ((tmp_388 (distinct tmp_387 tmp_380)))
        tmp_388))))))))))))))))))))))))))))))))))))))))))))))))))))))))))))))))))))))))))))))))))))))))))))))))))))))))))))))))))))))))))))))))))))))))))))))))))))))))))))))))))))))))))))))))))))))))))))))))))))))))))))))))))))))))))))))))))))))))))))))))))))))))))))))))))))))))))))))))))))))))))))))))))))))))))))))))))))))))))))))))))))))))))))))))))))))))))))))))))))))))))))))))))))))))))))))))))))))
(check-sat)
